n_res = 5;
n_events = 52;
n_prec = 123;
source = 1;
sink = 52;
min_lvl = [-13, -10, -2, 2, -3];
max_lvl = [-4, 1, 4, 14, 1];
rr = [| 0, -1, 0, 1, 0, -1, 0, -1, -2, 0, 2, 0, 0, -1, -2, 0, -1, 0, 2, -2, 0, 2, 2, -1, 0, 0, 0, 1, -1, 0, -2, 0, 0, 0, 0, 0, 0, 0, 0, -1, 0, 0, -2, -1, 0, 0, 2, -1, -2, 2, -1, 0
      | 0, -1, -1, 0, 0, -1, -2, -1, 1, 2, -2, 0, 0, -1, 0, 0, -1, 0, 1, 0, 0, 2, -1, 1, 2, -2, 1, 1, 2, 0, 1, 1, -2, 0, 1, -2, 2, 0, 0, -1, 0, -2, 1, -2, 2, -1, 0, -2, -2, 0, 0, 0
      | 0, -1, 0, 2, 0, -1, 0, 1, 1, -2, 1, 0, -2, 0, -1, 0, 2, 0, 0, 0, 0, 0, 0, 0, 1, 1, 2, 0, -1, -2, -2, 0, 0, 0, -1, 0, 0, 2, -1, -1, 0, -2, 2, -1, 0, 1, 2, 0, 2, 0, 1, 0
      | 0, 0, 0, 1, 2, 0, 2, -2, 2, 0, -2, 0, 0, 1, -1, 2, 2, -2, 0, 1, 0, 2, -1, -1, 1, 2, 0, -2, 0, 0, -2, -1, -2, 0, 2, 0, 1, 2, -2, 0, 1, 2, 1, -2, 1, -2, 0, 2, 0, 1, 0, 0
      | 0, 0, 0, 2, 0, -2, -1, 0, -1, 1, -2, 1, 2, 0, 1, -1, -1, 1, 1, -2, -1, 1, 1, 0, -2, 0, 0, 1, 2, 0, 0, -2, 0, 0, 0, 0, -2, 1, 0, 1, 0, 2, 0, 2, -1, 0, 0, 0, 0, -1, 0, 0 |];
prec = [| 1, 0, 7
        | 1, 0, 2
        | 1, 0, 5
        | 1, 0, 32
        | 1, 0, 4
        | 1, 0, 8
        | 1, 0, 6
        | 1, 0, 3
        | 1, 0, 46
        | 1, 0, 30
        | 2, 3, 22
        | 2, 0, 14
        | 2, 0, 27
        | 3, 4, 9
        | 4, 1, 28
        | 4, -3, 32
        | 4, -3, 10
        | 5, 1, 48
        | 6, 7, 38
        | 7, -1, 30
        | 7, 18, 18
        | 8, -3, 32
        | 9, -6, 46
        | 9, 7, 52
        | 10, -4, 21
        | 10, 0, 20
        | 11, -189, 21
        | 11, 0, 13
        | 12, 0, 26
        | 12, 3, 34
        | 12, -181, 24
        | 13, -182, 7
        | 13, 7, 47
        | 14, 2, 17
        | 14, 2, 18
        | 15, -2, 39
        | 15, 7, 52
        | 16, 8, 36
        | 16, -101, 8
        | 16, 12, 18
        | 17, 23, 26
        | 17, -6, 14
        | 17, 22, 22
        | 18, -83, 12
        | 18, 2, 27
        | 19, 5, 33
        | 20, 12, 27
        | 20, 7, 40
        | 21, -110, 24
        | 21, 9, 12
        | 22, -1, 26
        | 22, -25, 17
        | 22, -33, 14
        | 22, -27, 2
        | 23, 3, 25
        | 23, 0, 34
        | 23, 0, 42
        | 23, 0, 51
        | 24, 0, 11
        | 24, 7, 21
        | 24, -178, 23
        | 24, 11, 25
        | 25, 2, 11
        | 25, 5, 47
        | 25, 11, 13
        | 26, -4, 41
        | 27, 8, 49
        | 27, -170, 23
        | 28, -2, 16
        | 29, 1, 49
        | 29, 12, 35
        | 29, -73, 31
        | 29, -82, 32
        | 30, 3, 13
        | 30, 3, 23
        | 31, -5, 16
        | 31, -4, 44
        | 31, 9, 29
        | 32, -2, 44
        | 32, -77, 8
        | 32, -47, 4
        | 32, 18, 31
        | 33, 9, 28
        | 33, -2, 49
        | 33, -67, 4
        | 34, 16, 13
        | 34, 18, 11
        | 34, -118, 24
        | 34, 0, 25
        | 34, 2, 47
        | 35, -1, 19
        | 36, 3, 44
        | 36, -63, 16
        | 37, 0, 50
        | 38, 0, 43
        | 38, 2, 39
        | 39, 5, 37
        | 40, -6, 13
        | 40, 30, 24
        | 40, 30, 34
        | 41, 14, 18
        | 41, -155, 20
        | 41, -137, 23
        | 42, -3, 51
        | 42, 20, 45
        | 42, 21, 26
        | 42, 0, 10
        | 43, 5, 15
        | 44, -97, 36
        | 44, -79, 4
        | 44, -43, 28
        | 44, 8, 52
        | 45, 3, 52
        | 46, 6, 52
        | 47, 1, 52
        | 47, -135, 11
        | 47, -161, 30
        | 48, 5, 52
        | 49, -176, 24
        | 49, -104, 27
        | 49, 5, 52
        | 50, 1, 52
        | 51, 2, 52 |];
